NAME           C:\Bruker\Hvattum\knapsack\Problems\class4\100-10-09.mps
ROWS
 N  OBJ
 L  CONSTR1
 L  CONSTR2
 L  CONSTR3
 L  CONSTR4
 L  CONSTR5
 L  CONSTR6
 L  CONSTR7
 L  CONSTR8
 L  CONSTR9
 L  CONSTR10
COLUMNS
    INT0001   'MARKER'  'INTORG'
    X1        OBJ       486
    X1        CONSTR1   859
    X1        CONSTR2   71
    X1        CONSTR3   970
    X1        CONSTR4   355
    X1        CONSTR5   728
    X1        CONSTR6   382
    X1        CONSTR7   737
    X1        CONSTR8   19
    X1        CONSTR9   101
    X1        CONSTR10  600
    X2        OBJ       737
    X2        CONSTR1   750
    X2        CONSTR2   518
    X2        CONSTR3   845
    X2        CONSTR4   218
    X2        CONSTR5   904
    X2        CONSTR6   765
    X2        CONSTR7   245
    X2        CONSTR8   187
    X2        CONSTR9   243
    X2        CONSTR10  65
    X3        OBJ       887
    X3        CONSTR1   83
    X3        CONSTR2   452
    X3        CONSTR3   964
    X3        CONSTR4   866
    X3        CONSTR5   531
    X3        CONSTR6   846
    X3        CONSTR7   427
    X3        CONSTR8   193
    X3        CONSTR9   594
    X3        CONSTR10  272
    X4        OBJ       556
    X4        CONSTR1   297
    X4        CONSTR2   336
    X4        CONSTR3   454
    X4        CONSTR4   136
    X4        CONSTR5   245
    X4        CONSTR6   101
    X4        CONSTR7   923
    X4        CONSTR8   444
    X4        CONSTR9   230
    X4        CONSTR10  433
    X5        OBJ       775
    X5        CONSTR1   690
    X5        CONSTR2   329
    X5        CONSTR3   655
    X5        CONSTR4   366
    X5        CONSTR5   890
    X5        CONSTR6   381
    X5        CONSTR7   479
    X5        CONSTR8   431
    X5        CONSTR9   116
    X5        CONSTR10  641
    X6        OBJ       314
    X6        CONSTR1   10
    X6        CONSTR2   798
    X6        CONSTR3   514
    X6        CONSTR4   223
    X6        CONSTR5   306
    X6        CONSTR6   731
    X6        CONSTR7   46
    X6        CONSTR8   146
    X6        CONSTR9   100
    X6        CONSTR10  242
    X7        OBJ       592
    X7        CONSTR1   347
    X7        CONSTR2   830
    X7        CONSTR3   89
    X7        CONSTR4   584
    X7        CONSTR5   192
    X7        CONSTR6   518
    X7        CONSTR7   841
    X7        CONSTR8   296
    X7        CONSTR9   826
    X7        CONSTR10  209
    X8        OBJ       522
    X8        CONSTR1   466
    X8        CONSTR2   17
    X8        CONSTR3   156
    X8        CONSTR4   546
    X8        CONSTR5   81
    X8        CONSTR6   377
    X8        CONSTR7   837
    X8        CONSTR8   938
    X8        CONSTR9   668
    X8        CONSTR10  741
    X9        OBJ       694
    X9        CONSTR1   696
    X9        CONSTR2   13
    X9        CONSTR3   642
    X9        CONSTR4   608
    X9        CONSTR5   157
    X9        CONSTR6   618
    X9        CONSTR7   779
    X9        CONSTR8   164
    X9        CONSTR9   368
    X9        CONSTR10  104
    X10       OBJ       388
    X10       CONSTR1   397
    X10       CONSTR2   174
    X10       CONSTR3   442
    X10       CONSTR4   505
    X10       CONSTR5   171
    X10       CONSTR6   905
    X10       CONSTR7   42
    X10       CONSTR8   245
    X10       CONSTR9   650
    X10       CONSTR10  64
    X11       OBJ       702
    X11       CONSTR1   695
    X11       CONSTR2   578
    X11       CONSTR3   258
    X11       CONSTR4   9
    X11       CONSTR5   589
    X11       CONSTR6   703
    X11       CONSTR7   446
    X11       CONSTR8   248
    X11       CONSTR9   763
    X11       CONSTR10  966
    X12       OBJ       598
    X12       CONSTR1   171
    X12       CONSTR2   287
    X12       CONSTR3   597
    X12       CONSTR4   665
    X12       CONSTR5   651
    X12       CONSTR6   65
    X12       CONSTR7   943
    X12       CONSTR8   737
    X12       CONSTR9   107
    X12       CONSTR10  94
    X13       OBJ       916
    X13       CONSTR1   319
    X13       CONSTR2   403
    X13       CONSTR3   981
    X13       CONSTR4   609
    X13       CONSTR5   484
    X13       CONSTR6   961
    X13       CONSTR7   898
    X13       CONSTR8   815
    X13       CONSTR9   24
    X13       CONSTR10  91
    X14       OBJ       722
    X14       CONSTR1   48
    X14       CONSTR2   657
    X14       CONSTR3   164
    X14       CONSTR4   134
    X14       CONSTR5   630
    X14       CONSTR6   777
    X14       CONSTR7   238
    X14       CONSTR8   264
    X14       CONSTR9   214
    X14       CONSTR10  211
    X15       OBJ       895
    X15       CONSTR1   821
    X15       CONSTR2   377
    X15       CONSTR3   875
    X15       CONSTR4   150
    X15       CONSTR5   251
    X15       CONSTR6   590
    X15       CONSTR7   410
    X15       CONSTR8   180
    X15       CONSTR9   969
    X15       CONSTR10  432
    X16       OBJ       696
    X16       CONSTR1   352
    X16       CONSTR2   333
    X16       CONSTR3   814
    X16       CONSTR4   103
    X16       CONSTR5   31
    X16       CONSTR6   142
    X16       CONSTR7   597
    X16       CONSTR8   538
    X16       CONSTR9   479
    X16       CONSTR10  214
    X17       OBJ       561
    X17       CONSTR1   571
    X17       CONSTR2   844
    X17       CONSTR3   888
    X17       CONSTR4   45
    X17       CONSTR5   400
    X17       CONSTR6   228
    X17       CONSTR7   181
    X17       CONSTR8   435
    X17       CONSTR9   584
    X17       CONSTR10  545
    X18       OBJ       479
    X18       CONSTR1   828
    X18       CONSTR2   937
    X18       CONSTR3   122
    X18       CONSTR4   868
    X18       CONSTR5   209
    X18       CONSTR6   293
    X18       CONSTR7   260
    X18       CONSTR8   617
    X18       CONSTR9   37
    X18       CONSTR10  461
    X19       OBJ       964
    X19       CONSTR1   109
    X19       CONSTR2   629
    X19       CONSTR3   595
    X19       CONSTR4   382
    X19       CONSTR5   687
    X19       CONSTR6   912
    X19       CONSTR7   957
    X19       CONSTR8   975
    X19       CONSTR9   771
    X19       CONSTR10  134
    X20       OBJ       650
    X20       CONSTR1   131
    X20       CONSTR2   79
    X20       CONSTR3   72
    X20       CONSTR4   304
    X20       CONSTR5   174
    X20       CONSTR6   875
    X20       CONSTR7   479
    X20       CONSTR8   878
    X20       CONSTR9   718
    X20       CONSTR10  653
    X21       OBJ       849
    X21       CONSTR1   19
    X21       CONSTR2   684
    X21       CONSTR3   956
    X21       CONSTR4   521
    X21       CONSTR5   986
    X21       CONSTR6   43
    X21       CONSTR7   385
    X21       CONSTR8   955
    X21       CONSTR9   709
    X21       CONSTR10  614
    X22       OBJ       541
    X22       CONSTR1   193
    X22       CONSTR2   808
    X22       CONSTR3   50
    X22       CONSTR4   288
    X22       CONSTR5   948
    X22       CONSTR6   750
    X22       CONSTR7   416
    X22       CONSTR8   747
    X22       CONSTR9   127
    X22       CONSTR10  580
    X23       OBJ       996
    X23       CONSTR1   840
    X23       CONSTR2   499
    X23       CONSTR3   327
    X23       CONSTR4   273
    X23       CONSTR5   155
    X23       CONSTR6   773
    X23       CONSTR7   359
    X23       CONSTR8   524
    X23       CONSTR9   287
    X23       CONSTR10  988
    X24       OBJ       504
    X24       CONSTR1   141
    X24       CONSTR2   403
    X24       CONSTR3   275
    X24       CONSTR4   120
    X24       CONSTR5   248
    X24       CONSTR6   124
    X24       CONSTR7   836
    X24       CONSTR8   220
    X24       CONSTR9   424
    X24       CONSTR10  239
    X25       OBJ       791
    X25       CONSTR1   522
    X25       CONSTR2   97
    X25       CONSTR3   123
    X25       CONSTR4   693
    X25       CONSTR5   977
    X25       CONSTR6   145
    X25       CONSTR7   436
    X25       CONSTR8   146
    X25       CONSTR9   224
    X25       CONSTR10  4
    X26       OBJ       499
    X26       CONSTR1   496
    X26       CONSTR2   162
    X26       CONSTR3   671
    X26       CONSTR4   289
    X26       CONSTR5   246
    X26       CONSTR6   149
    X26       CONSTR7   589
    X26       CONSTR8   876
    X26       CONSTR9   937
    X26       CONSTR10  211
    X27       OBJ       309
    X27       CONSTR1   247
    X27       CONSTR2   45
    X27       CONSTR3   301
    X27       CONSTR4   34
    X27       CONSTR5   884
    X27       CONSTR6   297
    X27       CONSTR7   131
    X27       CONSTR8   40
    X27       CONSTR9   813
    X27       CONSTR10  97
    X28       OBJ       895
    X28       CONSTR1   923
    X28       CONSTR2   928
    X28       CONSTR3   803
    X28       CONSTR4   758
    X28       CONSTR5   873
    X28       CONSTR6   792
    X28       CONSTR7   808
    X28       CONSTR8   960
    X28       CONSTR9   479
    X28       CONSTR10  275
    X29       OBJ       482
    X29       CONSTR1   502
    X29       CONSTR2   544
    X29       CONSTR3   325
    X29       CONSTR4   167
    X29       CONSTR5   140
    X29       CONSTR6   98
    X29       CONSTR7   840
    X29       CONSTR8   191
    X29       CONSTR9   459
    X29       CONSTR10  557
    X30       OBJ       862
    X30       CONSTR1   434
    X30       CONSTR2   646
    X30       CONSTR3   653
    X30       CONSTR4   195
    X30       CONSTR5   526
    X30       CONSTR6   674
    X30       CONSTR7   909
    X30       CONSTR8   745
    X30       CONSTR9   491
    X30       CONSTR10  223
    X31       OBJ       793
    X31       CONSTR1   227
    X31       CONSTR2   601
    X31       CONSTR3   173
    X31       CONSTR4   730
    X31       CONSTR5   621
    X31       CONSTR6   374
    X31       CONSTR7   849
    X31       CONSTR8   600
    X31       CONSTR9   738
    X31       CONSTR10  849
    X32       OBJ       860
    X32       CONSTR1   608
    X32       CONSTR2   24
    X32       CONSTR3   573
    X32       CONSTR4   333
    X32       CONSTR5   475
    X32       CONSTR6   472
    X32       CONSTR7   732
    X32       CONSTR8   922
    X32       CONSTR9   142
    X32       CONSTR10  55
    X33       OBJ       886
    X33       CONSTR1   726
    X33       CONSTR2   82
    X33       CONSTR3   868
    X33       CONSTR4   553
    X33       CONSTR5   782
    X33       CONSTR6   998
    X33       CONSTR7   49
    X33       CONSTR8   705
    X33       CONSTR9   541
    X33       CONSTR10  947
    X34       OBJ       544
    X34       CONSTR1   669
    X34       CONSTR2   696
    X34       CONSTR3   679
    X34       CONSTR4   653
    X34       CONSTR5   516
    X34       CONSTR6   280
    X34       CONSTR7   290
    X34       CONSTR8   709
    X34       CONSTR9   233
    X34       CONSTR10  570
    X35       OBJ       667
    X35       CONSTR1   887
    X35       CONSTR2   996
    X35       CONSTR3   95
    X35       CONSTR4   36
    X35       CONSTR5   990
    X35       CONSTR6   899
    X35       CONSTR7   8
    X35       CONSTR8   266
    X35       CONSTR9   651
    X35       CONSTR10  263
    X36       OBJ       539
    X36       CONSTR1   93
    X36       CONSTR2   148
    X36       CONSTR3   392
    X36       CONSTR4   276
    X36       CONSTR5   487
    X36       CONSTR6   733
    X36       CONSTR7   33
    X36       CONSTR8   580
    X36       CONSTR9   596
    X36       CONSTR10  484
    X37       OBJ       719
    X37       CONSTR1   779
    X37       CONSTR2   105
    X37       CONSTR3   954
    X37       CONSTR4   240
    X37       CONSTR5   980
    X37       CONSTR6   247
    X37       CONSTR7   702
    X37       CONSTR8   822
    X37       CONSTR9   85
    X37       CONSTR10  979
    X38       OBJ       722
    X38       CONSTR1   626
    X38       CONSTR2   944
    X38       CONSTR3   344
    X38       CONSTR4   330
    X38       CONSTR5   294
    X38       CONSTR6   493
    X38       CONSTR7   463
    X38       CONSTR8   875
    X38       CONSTR9   26
    X38       CONSTR10  778
    X39       OBJ       592
    X39       CONSTR1   655
    X39       CONSTR2   412
    X39       CONSTR3   900
    X39       CONSTR4   292
    X39       CONSTR5   172
    X39       CONSTR6   106
    X39       CONSTR7   24
    X39       CONSTR8   493
    X39       CONSTR9   421
    X39       CONSTR10  409
    X40       OBJ       951
    X40       CONSTR1   139
    X40       CONSTR2   379
    X40       CONSTR3   876
    X40       CONSTR4   562
    X40       CONSTR5   618
    X40       CONSTR6   483
    X40       CONSTR7   189
    X40       CONSTR8   698
    X40       CONSTR9   837
    X40       CONSTR10  885
    X41       OBJ       602
    X41       CONSTR1   813
    X41       CONSTR2   901
    X41       CONSTR3   455
    X41       CONSTR4   908
    X41       CONSTR5   232
    X41       CONSTR6   402
    X41       CONSTR7   354
    X41       CONSTR8   108
    X41       CONSTR9   671
    X41       CONSTR10  245
    X42       OBJ       882
    X42       CONSTR1   944
    X42       CONSTR2   505
    X42       CONSTR3   731
    X42       CONSTR4   39
    X42       CONSTR5   978
    X42       CONSTR6   139
    X42       CONSTR7   286
    X42       CONSTR8   401
    X42       CONSTR9   74
    X42       CONSTR10  118
    X43       OBJ       502
    X43       CONSTR1   528
    X43       CONSTR2   679
    X43       CONSTR3   775
    X43       CONSTR4   150
    X43       CONSTR5   543
    X43       CONSTR6   84
    X43       CONSTR7   825
    X43       CONSTR8   199
    X43       CONSTR9   630
    X43       CONSTR10  440
    X44       OBJ       1003
    X44       CONSTR1   597
    X44       CONSTR2   82
    X44       CONSTR3   923
    X44       CONSTR4   636
    X44       CONSTR5   921
    X44       CONSTR6   464
    X44       CONSTR7   545
    X44       CONSTR8   502
    X44       CONSTR9   436
    X44       CONSTR10  166
    X45       OBJ       626
    X45       CONSTR1   106
    X45       CONSTR2   788
    X45       CONSTR3   516
    X45       CONSTR4   526
    X45       CONSTR5   676
    X45       CONSTR6   695
    X45       CONSTR7   295
    X45       CONSTR8   676
    X45       CONSTR9   642
    X45       CONSTR10  581
    X46       OBJ       827
    X46       CONSTR1   286
    X46       CONSTR2   737
    X46       CONSTR3   459
    X46       CONSTR4   537
    X46       CONSTR5   671
    X46       CONSTR6   840
    X46       CONSTR7   736
    X46       CONSTR8   905
    X46       CONSTR9   696
    X46       CONSTR10  462
    X47       OBJ       742
    X47       CONSTR1   492
    X47       CONSTR2   743
    X47       CONSTR3   272
    X47       CONSTR4   384
    X47       CONSTR5   550
    X47       CONSTR6   741
    X47       CONSTR7   405
    X47       CONSTR8   258
    X47       CONSTR9   262
    X47       CONSTR10  622
    X48       OBJ       709
    X48       CONSTR1   598
    X48       CONSTR2   466
    X48       CONSTR3   858
    X48       CONSTR4   506
    X48       CONSTR5   725
    X48       CONSTR6   298
    X48       CONSTR7   856
    X48       CONSTR8   82
    X48       CONSTR9   594
    X48       CONSTR10  751
    X49       OBJ       737
    X49       CONSTR1   135
    X49       CONSTR2   533
    X49       CONSTR3   254
    X49       CONSTR4   853
    X49       CONSTR5   477
    X49       CONSTR6   384
    X49       CONSTR7   471
    X49       CONSTR8   737
    X49       CONSTR9   813
    X49       CONSTR10  494
    X50       OBJ       589
    X50       CONSTR1   530
    X50       CONSTR2   442
    X50       CONSTR3   362
    X50       CONSTR4   12
    X50       CONSTR5   546
    X50       CONSTR6   85
    X50       CONSTR7   598
    X50       CONSTR8   638
    X50       CONSTR9   687
    X50       CONSTR10  904
    X51       OBJ       689
    X51       CONSTR1   452
    X51       CONSTR2   314
    X51       CONSTR3   108
    X51       CONSTR4   23
    X51       CONSTR5   451
    X51       CONSTR6   576
    X51       CONSTR7   110
    X51       CONSTR8   950
    X51       CONSTR9   971
    X51       CONSTR10  654
    X52       OBJ       594
    X52       CONSTR1   902
    X52       CONSTR2   485
    X52       CONSTR3   838
    X52       CONSTR4   653
    X52       CONSTR5   92
    X52       CONSTR6   635
    X52       CONSTR7   232
    X52       CONSTR8   269
    X52       CONSTR9   101
    X52       CONSTR10  341
    X53       OBJ       750
    X53       CONSTR1   143
    X53       CONSTR2   851
    X53       CONSTR3   948
    X53       CONSTR4   870
    X53       CONSTR5   333
    X53       CONSTR6   307
    X53       CONSTR7   243
    X53       CONSTR8   428
    X53       CONSTR9   973
    X53       CONSTR10  164
    X54       OBJ       866
    X54       CONSTR1   732
    X54       CONSTR2   45
    X54       CONSTR3   667
    X54       CONSTR4   44
    X54       CONSTR5   57
    X54       CONSTR6   256
    X54       CONSTR7   466
    X54       CONSTR8   635
    X54       CONSTR9   700
    X54       CONSTR10  794
    X55       OBJ       633
    X55       CONSTR1   244
    X55       CONSTR2   3
    X55       CONSTR3   366
    X55       CONSTR4   578
    X55       CONSTR5   974
    X55       CONSTR6   344
    X55       CONSTR7   47
    X55       CONSTR8   372
    X55       CONSTR9   759
    X55       CONSTR10  514
    X56       OBJ       763
    X56       CONSTR1   540
    X56       CONSTR2   262
    X56       CONSTR3   519
    X56       CONSTR4   272
    X56       CONSTR5   398
    X56       CONSTR6   109
    X56       CONSTR7   382
    X56       CONSTR8   370
    X56       CONSTR9   378
    X56       CONSTR10  341
    X57       OBJ       559
    X57       CONSTR1   51
    X57       CONSTR2   666
    X57       CONSTR3   880
    X57       CONSTR4   254
    X57       CONSTR5   502
    X57       CONSTR6   488
    X57       CONSTR7   400
    X57       CONSTR8   900
    X57       CONSTR9   440
    X57       CONSTR10  534
    X58       OBJ       926
    X58       CONSTR1   114
    X58       CONSTR2   458
    X58       CONSTR3   446
    X58       CONSTR4   276
    X58       CONSTR5   544
    X58       CONSTR6   482
    X58       CONSTR7   940
    X58       CONSTR8   107
    X58       CONSTR9   940
    X58       CONSTR10  347
    X59       OBJ       563
    X59       CONSTR1   309
    X59       CONSTR2   474
    X59       CONSTR3   91
    X59       CONSTR4   433
    X59       CONSTR5   74
    X59       CONSTR6   828
    X59       CONSTR7   587
    X59       CONSTR8   712
    X59       CONSTR9   281
    X59       CONSTR10  583
    X60       OBJ       671
    X60       CONSTR1   98
    X60       CONSTR2   187
    X60       CONSTR3   157
    X60       CONSTR4   833
    X60       CONSTR5   378
    X60       CONSTR6   717
    X60       CONSTR7   603
    X60       CONSTR8   203
    X60       CONSTR9   841
    X60       CONSTR10  511
    X61       OBJ       651
    X61       CONSTR1   935
    X61       CONSTR2   355
    X61       CONSTR3   253
    X61       CONSTR4   217
    X61       CONSTR5   23
    X61       CONSTR6   9
    X61       CONSTR7   388
    X61       CONSTR8   64
    X61       CONSTR9   150
    X61       CONSTR10  605
    X62       OBJ       907
    X62       CONSTR1   690
    X62       CONSTR2   495
    X62       CONSTR3   454
    X62       CONSTR4   135
    X62       CONSTR5   775
    X62       CONSTR6   168
    X62       CONSTR7   165
    X62       CONSTR8   392
    X62       CONSTR9   67
    X62       CONSTR10  751
    X63       OBJ       630
    X63       CONSTR1   205
    X63       CONSTR2   372
    X63       CONSTR3   744
    X63       CONSTR4   220
    X63       CONSTR5   130
    X63       CONSTR6   184
    X63       CONSTR7   369
    X63       CONSTR8   92
    X63       CONSTR9   31
    X63       CONSTR10  520
    X64       OBJ       688
    X64       CONSTR1   418
    X64       CONSTR2   580
    X64       CONSTR3   988
    X64       CONSTR4   910
    X64       CONSTR5   419
    X64       CONSTR6   594
    X64       CONSTR7   169
    X64       CONSTR8   624
    X64       CONSTR9   154
    X64       CONSTR10  932
    X65       OBJ       735
    X65       CONSTR1   681
    X65       CONSTR2   48
    X65       CONSTR3   684
    X65       CONSTR4   625
    X65       CONSTR5   609
    X65       CONSTR6   700
    X65       CONSTR7   315
    X65       CONSTR8   973
    X65       CONSTR9   357
    X65       CONSTR10  720
    X66       OBJ       704
    X66       CONSTR1   337
    X66       CONSTR2   15
    X66       CONSTR3   27
    X66       CONSTR4   449
    X66       CONSTR5   56
    X66       CONSTR6   2
    X66       CONSTR7   126
    X66       CONSTR8   476
    X66       CONSTR9   428
    X66       CONSTR10  814
    X67       OBJ       1004
    X67       CONSTR1   151
    X67       CONSTR2   499
    X67       CONSTR3   652
    X67       CONSTR4   754
    X67       CONSTR5   913
    X67       CONSTR6   850
    X67       CONSTR7   154
    X67       CONSTR8   572
    X67       CONSTR9   894
    X67       CONSTR10  798
    X68       OBJ       480
    X68       CONSTR1   580
    X68       CONSTR2   201
    X68       CONSTR3   90
    X68       CONSTR4   224
    X68       CONSTR5   343
    X68       CONSTR6   147
    X68       CONSTR7   419
    X68       CONSTR8   991
    X68       CONSTR9   587
    X68       CONSTR10  848
    X69       OBJ       474
    X69       CONSTR1   656
    X69       CONSTR2   438
    X69       CONSTR3   222
    X69       CONSTR4   390
    X69       CONSTR5   862
    X69       CONSTR6   83
    X69       CONSTR7   90
    X69       CONSTR8   390
    X69       CONSTR9   753
    X69       CONSTR10  659
    X70       OBJ       729
    X70       CONSTR1   6
    X70       CONSTR2   461
    X70       CONSTR3   464
    X70       CONSTR4   509
    X70       CONSTR5   458
    X70       CONSTR6   286
    X70       CONSTR7   246
    X70       CONSTR8   185
    X70       CONSTR9   772
    X70       CONSTR10  372
    X71       OBJ       523
    X71       CONSTR1   250
    X71       CONSTR2   819
    X71       CONSTR3   765
    X71       CONSTR4   176
    X71       CONSTR5   772
    X71       CONSTR6   555
    X71       CONSTR7   184
    X71       CONSTR8   406
    X71       CONSTR9   671
    X71       CONSTR10  570
    X72       OBJ       867
    X72       CONSTR1   237
    X72       CONSTR2   741
    X72       CONSTR3   226
    X72       CONSTR4   592
    X72       CONSTR5   673
    X72       CONSTR6   161
    X72       CONSTR7   271
    X72       CONSTR8   923
    X72       CONSTR9   766
    X72       CONSTR10  837
    X73       OBJ       701
    X73       CONSTR1   320
    X73       CONSTR2   965
    X73       CONSTR3   848
    X73       CONSTR4   280
    X73       CONSTR5   790
    X73       CONSTR6   46
    X73       CONSTR7   704
    X73       CONSTR8   670
    X73       CONSTR9   509
    X73       CONSTR10  411
    X74       OBJ       959
    X74       CONSTR1   774
    X74       CONSTR2   492
    X74       CONSTR3   61
    X74       CONSTR4   765
    X74       CONSTR5   415
    X74       CONSTR6   833
    X74       CONSTR7   150
    X74       CONSTR8   433
    X74       CONSTR9   77
    X74       CONSTR10  942
    X75       OBJ       833
    X75       CONSTR1   586
    X75       CONSTR2   490
    X75       CONSTR3   180
    X75       CONSTR4   549
    X75       CONSTR5   264
    X75       CONSTR6   642
    X75       CONSTR7   750
    X75       CONSTR8   141
    X75       CONSTR9   330
    X75       CONSTR10  376
    X76       OBJ       972
    X76       CONSTR1   967
    X76       CONSTR2   884
    X76       CONSTR3   296
    X76       CONSTR4   876
    X76       CONSTR5   531
    X76       CONSTR6   833
    X76       CONSTR7   853
    X76       CONSTR8   565
    X76       CONSTR9   396
    X76       CONSTR10  669
    X77       OBJ       818
    X77       CONSTR1   927
    X77       CONSTR2   553
    X77       CONSTR3   818
    X77       CONSTR4   468
    X77       CONSTR5   72
    X77       CONSTR6   301
    X77       CONSTR7   344
    X77       CONSTR8   63
    X77       CONSTR9   580
    X77       CONSTR10  202
    X78       OBJ       665
    X78       CONSTR1   525
    X78       CONSTR2   185
    X78       CONSTR3   331
    X78       CONSTR4   995
    X78       CONSTR5   246
    X78       CONSTR6   619
    X78       CONSTR7   909
    X78       CONSTR8   932
    X78       CONSTR9   979
    X78       CONSTR10  417
    X79       OBJ       866
    X79       CONSTR1   289
    X79       CONSTR2   853
    X79       CONSTR3   791
    X79       CONSTR4   127
    X79       CONSTR5   682
    X79       CONSTR6   344
    X79       CONSTR7   647
    X79       CONSTR8   346
    X79       CONSTR9   447
    X79       CONSTR10  380
    X80       OBJ       589
    X80       CONSTR1   475
    X80       CONSTR2   149
    X80       CONSTR3   475
    X80       CONSTR4   416
    X80       CONSTR5   645
    X80       CONSTR6   568
    X80       CONSTR7   964
    X80       CONSTR8   179
    X80       CONSTR9   565
    X80       CONSTR10  134
    X81       OBJ       698
    X81       CONSTR1   375
    X81       CONSTR2   334
    X81       CONSTR3   455
    X81       CONSTR4   322
    X81       CONSTR5   19
    X81       CONSTR6   407
    X81       CONSTR7   240
    X81       CONSTR8   840
    X81       CONSTR9   62
    X81       CONSTR10  355
    X82       OBJ       501
    X82       CONSTR1   289
    X82       CONSTR2   955
    X82       CONSTR3   441
    X82       CONSTR4   739
    X82       CONSTR5   55
    X82       CONSTR6   328
    X82       CONSTR7   562
    X82       CONSTR8   5
    X82       CONSTR9   569
    X82       CONSTR10  787
    X83       OBJ       844
    X83       CONSTR1   699
    X83       CONSTR2   673
    X83       CONSTR3   874
    X83       CONSTR4   841
    X83       CONSTR5   179
    X83       CONSTR6   662
    X83       CONSTR7   984
    X83       CONSTR8   169
    X83       CONSTR9   529
    X83       CONSTR10  737
    X84       OBJ       857
    X84       CONSTR1   823
    X84       CONSTR2   783
    X84       CONSTR3   913
    X84       CONSTR4   36
    X84       CONSTR5   932
    X84       CONSTR6   580
    X84       CONSTR7   697
    X84       CONSTR8   955
    X84       CONSTR9   115
    X84       CONSTR10  811
    X85       OBJ       723
    X85       CONSTR1   65
    X85       CONSTR2   157
    X85       CONSTR3   706
    X85       CONSTR4   539
    X85       CONSTR5   107
    X85       CONSTR6   33
    X85       CONSTR7   726
    X85       CONSTR8   72
    X85       CONSTR9   580
    X85       CONSTR10  844
    X86       OBJ       504
    X86       CONSTR1   151
    X86       CONSTR2   264
    X86       CONSTR3   424
    X86       CONSTR4   788
    X86       CONSTR5   833
    X86       CONSTR6   917
    X86       CONSTR7   612
    X86       CONSTR8   340
    X86       CONSTR9   41
    X86       CONSTR10  550
    X87       OBJ       834
    X87       CONSTR1   332
    X87       CONSTR2   880
    X87       CONSTR3   381
    X87       CONSTR4   895
    X87       CONSTR5   616
    X87       CONSTR6   726
    X87       CONSTR7   21
    X87       CONSTR8   980
    X87       CONSTR9   585
    X87       CONSTR10  661
    X88       OBJ       754
    X88       CONSTR1   471
    X88       CONSTR2   165
    X88       CONSTR3   390
    X88       CONSTR4   322
    X88       CONSTR5   620
    X88       CONSTR6   366
    X88       CONSTR7   447
    X88       CONSTR8   565
    X88       CONSTR9   17
    X88       CONSTR10  150
    X89       OBJ       961
    X89       CONSTR1   54
    X89       CONSTR2   752
    X89       CONSTR3   844
    X89       CONSTR4   451
    X89       CONSTR5   970
    X89       CONSTR6   695
    X89       CONSTR7   951
    X89       CONSTR8   309
    X89       CONSTR9   714
    X89       CONSTR10  910
    X90       OBJ       427
    X90       CONSTR1   450
    X90       CONSTR2   895
    X90       CONSTR3   385
    X90       CONSTR4   426
    X90       CONSTR5   422
    X90       CONSTR6   408
    X90       CONSTR7   51
    X90       CONSTR8   177
    X90       CONSTR9   61
    X90       CONSTR10  648
    X91       OBJ       1052
    X91       CONSTR1   401
    X91       CONSTR2   368
    X91       CONSTR3   12
    X91       CONSTR4   743
    X91       CONSTR5   931
    X91       CONSTR6   443
    X91       CONSTR7   740
    X91       CONSTR8   218
    X91       CONSTR9   964
    X91       CONSTR10  902
    X92       OBJ       906
    X92       CONSTR1   452
    X92       CONSTR2   985
    X92       CONSTR3   322
    X92       CONSTR4   652
    X92       CONSTR5   115
    X92       CONSTR6   169
    X92       CONSTR7   797
    X92       CONSTR8   819
    X92       CONSTR9   926
    X92       CONSTR10  447
    X93       OBJ       851
    X93       CONSTR1   750
    X93       CONSTR2   223
    X93       CONSTR3   367
    X93       CONSTR4   722
    X93       CONSTR5   891
    X93       CONSTR6   956
    X93       CONSTR7   783
    X93       CONSTR8   419
    X93       CONSTR9   526
    X93       CONSTR10  54
    X94       OBJ       713
    X94       CONSTR1   63
    X94       CONSTR2   509
    X94       CONSTR3   818
    X94       CONSTR4   133
    X94       CONSTR5   553
    X94       CONSTR6   494
    X94       CONSTR7   309
    X94       CONSTR8   325
    X94       CONSTR9   240
    X94       CONSTR10  804
    X95       OBJ       859
    X95       CONSTR1   57
    X95       CONSTR2   699
    X95       CONSTR3   769
    X95       CONSTR4   607
    X95       CONSTR5   139
    X95       CONSTR6   465
    X95       CONSTR7   659
    X95       CONSTR8   462
    X95       CONSTR9   883
    X95       CONSTR10  531
    X96       OBJ       587
    X96       CONSTR1   928
    X96       CONSTR2   491
    X96       CONSTR3   837
    X96       CONSTR4   79
    X96       CONSTR5   682
    X96       CONSTR6   98
    X96       CONSTR7   682
    X96       CONSTR8   2
    X96       CONSTR9   57
    X96       CONSTR10  3
    X97       OBJ       841
    X97       CONSTR1   340
    X97       CONSTR2   473
    X97       CONSTR3   962
    X97       CONSTR4   682
    X97       CONSTR5   415
    X97       CONSTR6   858
    X97       CONSTR7   216
    X97       CONSTR8   413
    X97       CONSTR9   277
    X97       CONSTR10  81
    X98       OBJ       604
    X98       CONSTR1   297
    X98       CONSTR2   576
    X98       CONSTR3   810
    X98       CONSTR4   991
    X98       CONSTR5   93
    X98       CONSTR6   100
    X98       CONSTR7   776
    X98       CONSTR8   249
    X98       CONSTR9   811
    X98       CONSTR10  262
    X99       OBJ       671
    X99       CONSTR1   2
    X99       CONSTR2   920
    X99       CONSTR3   106
    X99       CONSTR4   381
    X99       CONSTR5   924
    X99       CONSTR6   196
    X99       CONSTR7   146
    X99       CONSTR8   87
    X99       CONSTR9   678
    X99       CONSTR10  978
    X100      OBJ       912
    X100      CONSTR1   901
    X100      CONSTR2   694
    X100      CONSTR3   907
    X100      CONSTR4   602
    X100      CONSTR5   501
    X100      CONSTR6   893
    X100      CONSTR7   601
    X100      CONSTR8   501
    X100      CONSTR9   900
    X100      CONSTR10  125
    INT0001   'MARKER'  'INTEND'
RHS
    RHS10001  CONSTR1   11222
    RHS10001  CONSTR2   12219
    RHS10001  CONSTR3   13288
    RHS10001  CONSTR4   11109
    RHS10001  CONSTR5   12507
    RHS10001  CONSTR6   11673
    RHS10001  CONSTR7   12103
    RHS10001  CONSTR8   11900
    RHS10001  CONSTR9   12180
    RHS10001  CONSTR10  12336
BOUNDS
 BV BND       X1        .00
 BV BND       X2        .00
 BV BND       X3        .00
 BV BND       X4        .00
 BV BND       X5        .00
 BV BND       X6        .00
 BV BND       X7        .00
 BV BND       X8        .00
 BV BND       X9        .00
 BV BND       X10       .00
 BV BND       X11       .00
 BV BND       X12       .00
 BV BND       X13       .00
 BV BND       X14       .00
 BV BND       X15       .00
 BV BND       X16       .00
 BV BND       X17       .00
 BV BND       X18       .00
 BV BND       X19       .00
 BV BND       X20       .00
 BV BND       X21       .00
 BV BND       X22       .00
 BV BND       X23       .00
 BV BND       X24       .00
 BV BND       X25       .00
 BV BND       X26       .00
 BV BND       X27       .00
 BV BND       X28       .00
 BV BND       X29       .00
 BV BND       X30       .00
 BV BND       X31       .00
 BV BND       X32       .00
 BV BND       X33       .00
 BV BND       X34       .00
 BV BND       X35       .00
 BV BND       X36       .00
 BV BND       X37       .00
 BV BND       X38       .00
 BV BND       X39       .00
 BV BND       X40       .00
 BV BND       X41       .00
 BV BND       X42       .00
 BV BND       X43       .00
 BV BND       X44       .00
 BV BND       X45       .00
 BV BND       X46       .00
 BV BND       X47       .00
 BV BND       X48       .00
 BV BND       X49       .00
 BV BND       X50       .00
 BV BND       X51       .00
 BV BND       X52       .00
 BV BND       X53       .00
 BV BND       X54       .00
 BV BND       X55       .00
 BV BND       X56       .00
 BV BND       X57       .00
 BV BND       X58       .00
 BV BND       X59       .00
 BV BND       X60       .00
 BV BND       X61       .00
 BV BND       X62       .00
 BV BND       X63       .00
 BV BND       X64       .00
 BV BND       X65       .00
 BV BND       X66       .00
 BV BND       X67       .00
 BV BND       X68       .00
 BV BND       X69       .00
 BV BND       X70       .00
 BV BND       X71       .00
 BV BND       X72       .00
 BV BND       X73       .00
 BV BND       X74       .00
 BV BND       X75       .00
 BV BND       X76       .00
 BV BND       X77       .00
 BV BND       X78       .00
 BV BND       X79       .00
 BV BND       X80       .00
 BV BND       X81       .00
 BV BND       X82       .00
 BV BND       X83       .00
 BV BND       X84       .00
 BV BND       X85       .00
 BV BND       X86       .00
 BV BND       X87       .00
 BV BND       X88       .00
 BV BND       X89       .00
 BV BND       X90       .00
 BV BND       X91       .00
 BV BND       X92       .00
 BV BND       X93       .00
 BV BND       X94       .00
 BV BND       X95       .00
 BV BND       X96       .00
 BV BND       X97       .00
 BV BND       X98       .00
 BV BND       X99       .00
 BV BND       X100      .00
ENDATA
